; benchmark generated from python API
(set-info :status unknown)
(declare-fun C () Real)
(declare-fun L_4 () Real)
(declare-fun A_4 () Real)
(declare-fun S_5 () Real)
(declare-fun S_2 () Real)
(declare-fun S_4 () Real)
(declare-fun S_1 () Real)
(declare-fun L_1 () Real)
(declare-fun A_1 () Real)
(declare-fun L_0 () Real)
(declare-fun S_0 () Real)
(declare-fun A_0 () Real)
(declare-fun S_3 () Real)
(declare-fun L_2 () Real)
(declare-fun A_2 () Real)
(declare-fun L_5 () Real)
(declare-fun A_5 () Real)
(declare-fun B () Real)
(declare-fun A_3 () Real)
(declare-fun L_3 () Real)
(assert
 (let (($x39 (>= L_0 0.0)))
 (let (($x747 (>= C 5.0)))
 (let (($x929 (>= B 5.0)))
 (let ((?x263 (* (- 1.0) B)))
 (let ((?x340 (* (- 1.0) L_5)))
 (let ((?x1324 (* (- 1.0) S_0)))
 (let ((?x5305 (* (- 6.0) C)))
 (let (($x2928 (<= (+ (* (- 1.0) S_4) A_1 (* (- 1.0) L_1) (* 2.0 C)) 0.0)))
 (let (($x2416 (<= (+ A_2 (* (- 1.0) L_2) (* (- 1.0) S_4) C) 0.0)))
 (let (($x13214 (or $x2416 $x2928 (<= (+ (* (- 1.0) S_4) (* 3.0 C) S_0) 0.0))))
 (let (($x2424 (<= (+ A_2 (* (- 1.0) L_2) (* (- 1.0) S_3)) 0.0)))
 (let (($x12181 (or $x2424 (<= (+ A_1 (* (- 1.0) L_1) C (* (- 1.0) S_3)) 0.0) (<= (+ (* 2.0 C) (* (- 1.0) S_3) S_0) 0.0))))
 (let (($x5429 (<= (+ A_5 (* (- 1.0) A_0) (* (- 5.0) C) ?x340 ?x263 L_0) 0.0)))
 (let ((?x1138 (* (- 2.0) C)))
 (let ((?x432 (* (- 1.0) A_1)))
 (let ((?x306 (* (- 1.0) L_3)))
 (let (($x16598 (<= 0.0 (+ ?x306 A_3 ?x432 ?x1138 L_1 ?x263))))
 (let (($x16599 (not $x16598)))
 (let ((?x1071 (* 2.0 C)))
 (let ((?x272 (* (- 1.0) L_1)))
 (let ((?x437 (* (- 1.0) A_3)))
 (let (($x16962 (not (<= 0.0 (+ L_4 ?x340)))))
 (let (($x76 (= L_3 L_2)))
 (let (($x20858 (or $x76 (<= (+ (* (- 1.0) L_4) L_3 ?x437 A_5 ?x1138) 0.0) $x16962)))
 (let (($x56 (= L_1 L_0)))
 (let (($x33838 (or $x56 (<= 0.0 (+ (* (- 1.0) A_4) L_4 A_1 ?x272 (* 3.0 C))))))
 (let (($x17028 (<= 0.0 (+ (* (- 1.0) A_2) L_2 A_5 (* (- 3.0) C) ?x340 ?x263))))
 (let ((?x1153 (* 3.0 C)))
 (let ((?x443 (* (- 1.0) A_5)))
 (let ((?x289 (* (- 1.0) L_2)))
 (let (($x2470 (= (+ A_2 ?x289 ?x443 ?x1153 L_5 B) 0.0)))
 (let (($x16965 (<= 0.0 (+ (* (- 1.0) A_4) L_4 A_5 (* (- 1.0) C) ?x340 ?x263))))
 (let (($x16955 (<= 0.0 (+ A_5 ?x432 (* (- 4.0) C) L_1 ?x340 ?x263))))
 (let (($x96 (= L_5 L_4)))
 (let (($x34433 (or $x96 (<= (+ ?x443 (* 5.0 C) S_0 L_5 B) 0.0) $x16955 $x16965 $x17028)))
 (let (($x35444 (or $x96 (<= (+ ?x443 (* 4.0 C) S_1 L_5 B) 0.0) $x16965 $x17028)))
 (let (($x2371 (not $x76)))
 (let (($x34614 (or (= (+ A_4 (* (- 1.0) L_4) ?x443 C L_5 B) 0.0) (not $x16965))))
 (let ((?x440 (* (- 1.0) A_4)))
 (let ((?x1478 (+ ?x440 L_4 A_2 ?x289 ?x1071)))
 (let (($x16448 (<= 0.0 ?x1478)))
 (let (($x16554 (not $x16448)))
 (let (($x537 (<= 0.0 (+ (* (- 1.0) A_2) L_2 A_1 C ?x272 ?x263))))
 (let (($x535 (not $x537)))
 (let (($x35308 (or $x96 $x537 (not (<= 0.0 (+ ?x440 L_4 A_1 ?x1153 ?x272 ?x263))) $x16965)))
 (let (($x16446 (<= 0.0 (+ ?x440 L_4 A_1 ?x1153 ?x272 ?x263))))
 (let (($x34245 (or $x96 $x537 (= (+ ?x443 A_1 (* 4.0 C) ?x272 L_5) 0.0) $x16446 (not (<= 0.0 (+ ?x443 A_1 ?x272 (* 4.0 C) L_5))))))
 (let (($x66 (= L_2 L_1)))
 (let (($x34150 (or $x66 (<= (+ S_5 (* (- 1.0) A_2) L_2 (* (- 3.0) C) B) 0.0))))
 (let (($x34126 (or (= (+ (* (- 1.0) A_2) L_2 A_1 ?x272 C B) 0.0) (not (<= 0.0 (+ A_2 ?x289 ?x432 (* (- 1.0) C) L_1 ?x263))))))
 (let ((?x1864 (+ A_2 ?x289 ?x443 ?x1153 L_5)))
 (let (($x16560 (<= 0.0 ?x1864)))
 (let (($x16561 (not $x16560)))
 (let (($x34699 (or (= (+ ?x443 A_1 ?x272 (* 4.0 C) L_5 B) 0.0) (not $x16955))))
 (let (($x2002 (<= (+ A_4 (* (- 1.0) L_4) L_3 ?x437 (* (- 1.0) C) B) 0.0)))
 (let (($x1978 (not $x2002)))
 (let (($x33993 (or $x76 (= (+ L_3 ?x437 A_1 ?x1071 ?x272) 0.0) (<= (+ A_2 ?x289 ?x432 (* (- 1.0) C) L_1 B) 0.0) (not (<= 0.0 (+ L_3 ?x437 A_1 ?x272 ?x1071))))))
 (let (($x16291 (<= 0.0 (+ (* (- 1.0) A_2) L_2 ?x306 A_3 (* (- 1.0) C) ?x263))))
 (let (($x2015 (<= (+ ?x306 A_3 (* (- 1.0) A_0) (* (- 3.0) C) ?x263 L_0) 0.0)))
 (let (($x16771 (not (<= 0.0 (+ (* (- 1.0) L_4) L_3)))))
 (let (($x16820 (<= 0.0 (+ ?x432 C S_0 L_1))))
 (let (($x16821 (not $x16820)))
 (let (($x16701 (<= 0.0 (+ (* (- 1.0) A_2) L_2 A_1 ?x272 C))))
 (let (($x16702 (not $x16701)))
 (let (($x16861 (<= 0.0 (+ A_4 (* (- 1.0) L_4) ?x432 (* (- 3.0) C) L_1 ?x263))))
 (let (($x16738 (<= 0.0 (+ A_4 (* (- 1.0) L_4) (* (- 1.0) A_2) L_2 ?x1138 ?x263))))
 (let (($x1680 (not $x56)))
 (let (($x86 (= L_4 L_3)))
 (let (($x21233 (or $x86 $x1680 (<= (+ ?x440 L_4 A_1 ?x1153 (* (- 1.0) L_0)) 0.0) $x16738)))
 (let (($x3910 (<= (+ A_4 (* (- 1.0) L_4) (* (- 1.0) S_4) (* (- 1.0) C) ?x263) 0.0)))
 (let ((?x1215 (* (- 4.0) C)))
 (let ((?x1358 (* (- 1.0) A_0)))
 (let ((?x323 (* (- 1.0) L_4)))
 (let (($x3906 (<= (+ ?x440 L_4 (* 4.0 C) S_0 B) 0.0)))
 (let (($x16565 (<= 0.0 (+ A_2 ?x289 ?x432 (* (- 1.0) C) L_1 ?x263))))
 (let (($x16849 (or $x66 $x16565 (<= (+ (* (- 1.0) A_2) L_2 ?x1071 S_0 B) 0.0))))
 (let (($x33825 (or $x96 (not (<= 0.0 (+ A_4 ?x323 ?x443 C L_5))) (= (+ A_4 ?x323 ?x443 C L_5) 0.0))))
 (let (($x4304 (or (<= (+ A_1 ?x272 (* (- 1.0) S_2)) 0.0) (<= (+ C (* (- 1.0) S_2) S_0) 0.0))))
 (let (($x35432 (or $x76 (= (+ A_2 ?x289 L_3 ?x437 C) 0.0) (not (<= 0.0 (+ A_2 ?x289 L_3 ?x437 C))))))
 (let (($x1151 (<= (+ A_1 (* (- 1.0) S_2) ?x272 ?x263) 0.0)))
 (let (($x575 (not (<= 0.0 (+ ?x272 L_0)))))
 (let (($x16199 (or $x66 $x575 (<= (+ (* (- 1.0) A_2) L_2 A_1 C (* (- 1.0) L_0)) 0.0))))
 (let (($x22113 (or $x66 (<= (+ (* (- 1.0) A_2) L_2 (* (- 1.0) C) S_3 B) 0.0))))
 (let (($x128 (>= S_1 S_0)))
 (let (($x131 (>= S_2 S_1)))
 (let (($x134 (>= S_3 S_2)))
 (let (($x137 (>= S_4 S_3)))
 (let (($x142 (>= A_1 A_0)))
 (let (($x143 (>= A_2 A_1)))
 (let (($x145 (>= A_4 A_3)))
 (and (<= (+ A_4 ?x323) S_5) (<= (+ A_2 ?x289) S_4) (not (<= (+ A_3 ?x306) S_4)) $x145 $x143 $x142 $x137 $x134 $x131 $x128 (or $x56 $x575) (or $x56 (<= (+ ?x432 S_1 L_1 B) 0.0)) (or (not (<= 0.0 (+ ?x289 L_1))) $x66) (or $x66 (<= (+ (* (- 1.0) A_2) L_2 S_2 B) 0.0)) (<= (+ A_1 ?x1358 (* (- 1.0) C) ?x272 ?x263 L_0) 0.0) (<= (+ A_1 (* (- 1.0) C) (* (- 1.0) S_1) ?x272 ?x263) 0.0) (<= (+ A_1 ?x1138 ?x1324 ?x272 ?x263) 0.0) (or $x76 (not (<= 0.0 (+ L_2 ?x306)))) (<= (+ (* (- 1.0) S_4) ?x306 A_3 ?x263) 0.0) (<= (+ A_2 ?x289 (* (- 1.0) C) (* (- 1.0) S_2) ?x263) 0.0) (or $x86 (<= 0.0 (+ A_4 ?x323 ?x443 C L_5))) (<= (+ A_2 ?x289 (* (- 3.0) C) ?x1324 ?x263) 0.0) (<= (+ A_2 ?x289 ?x1358 ?x1138 ?x263 L_0) 0.0) (<= (+ A_2 ?x289 (* (- 1.0) S_4) C ?x263) 0.0) (or $x76 (<= (+ L_3 ?x437 S_3 B) 0.0)) $x22113 (or $x66 (<= (+ (* (- 1.0) A_2) L_2 C S_1 B) 0.0)) (or $x66 $x86 (= ?x1478 0.0)) (<= (+ A_2 ?x289 (* (- 1.0) S_3) ?x263) 0.0) $x16199 (or $x56 $x66 (= (+ (* (- 1.0) A_2) L_2 A_1 C ?x272) 0.0)) (or $x56 (<= 0.0 (+ (* (- 1.0) A_2) A_1 C)) (not $x66)) (or $x56 (<= (+ ?x432 ?x1138 S_3 L_1 B) 0.0)) (or $x56 $x86 $x537 (= (+ ?x440 L_4 A_1 ?x1153 ?x272) 0.0)) (or $x537 (<= (+ (* (- 1.0) S_4) A_1 ?x1071 ?x272 ?x263) 0.0)) $x1151 (or $x56 (<= (+ ?x432 C S_0 L_1 B) 0.0)) (or $x86 (= ?x1478 0.0) $x16554) (<= (+ ?x306 A_3 (* (- 1.0) C) (* (- 1.0) S_3) ?x263) 0.0) (or $x66 (<= 0.0 (+ A_2 ?x289 L_3 ?x437 C))) (or $x76 (<= (+ L_3 ?x437 C S_2 B) 0.0)) (or $x96 $x16448 $x16561) (<= (+ ?x432 L_1 (* (- 1.0) C) S_2) 0.0) (<= (+ ?x432 L_1 ?x1138 S_3) 0.0) (or $x86 $x1978) (<= (+ ?x306 A_3 (* (- 3.0) C) (* (- 1.0) S_1) ?x263) 0.0) (or $x96 (not (= (+ ?x440 L_4 A_2 ?x289 ?x1071 B) 0.0)) $x2470) (or (not $x16291) $x16701) $x35432 (or $x76 $x86 (= (+ ?x440 L_4 ?x306 A_3 C) 0.0)) (or $x86 (<= (+ S_5 ?x440 L_4 (* (- 1.0) C) B) 0.0)) (<= (+ A_4 ?x323 ?x1215 (* (- 1.0) S_1) ?x263) 0.0) (or $x86 (<= (+ ?x440 L_4 ?x1071 S_2 B) 0.0)) (<= (+ A_4 ?x323 (* (- 3.0) C) (* (- 1.0) S_2) ?x263) 0.0) (or $x86 $x16771) (or $x86 (<= (+ ?x440 L_4 C S_3 B) 0.0)) (or (= (+ ?x440 L_4 A_2 ?x289 ?x1071 B) 0.0) (not $x16738)) $x4304 (or $x86 $x3906 $x16702 $x16738) (or $x86 (<= (+ ?x440 L_4 ?x1153 S_1 B) 0.0) $x16738) (<= (+ ?x306 A_3 ?x1138 (* (- 1.0) S_2) ?x263) 0.0) (or $x86 $x2371 (<= (+ ?x440 L_4 ?x289 A_3 C) 0.0)) $x33825 (or (<= (+ A_1 ?x1358 ?x272 (* (- 1.0) C) L_0) 0.0) $x16599) (<= (+ ?x1358 (* (- 1.0) C) S_1 L_0) 0.0) (<= (+ ?x1138 S_1 ?x1324) 0.0) $x16849 (or $x86 $x535 $x16738) (or $x535 $x2416) (<= (+ A_4 ?x323 (* (- 5.0) C) ?x1324 ?x263) 0.0) (or $x86 $x3906 $x16738 $x16820) (or $x86 (<= 0.0 (+ (* (- 1.0) A_2) A_1 C)) $x16821 $x16861) (<= (+ A_4 ?x323 ?x1358 ?x1215 ?x263 L_0) 0.0) (<= (+ A_4 ?x323 ?x1138 (* (- 1.0) S_3) ?x263) 0.0) $x3910 $x21233 (or (= (+ ?x440 L_4 A_1 ?x272 ?x1153 B) 0.0) (not $x16861)) (or $x56 (<= 0.0 (+ L_3 ?x437 A_1 ?x272 ?x1071))) (or $x96 (<= (+ S_5 ?x443 L_5 B) 0.0)) (or $x96 $x16962) (or $x76 (<= (+ S_4 L_3 ?x437 (* (- 1.0) C) B) 0.0)) (or $x76 (<= (+ L_3 ?x437 ?x1153 S_0 B) 0.0) $x16291 $x16820) (or $x76 (<= 0.0 (+ (* (- 1.0) A_2) A_1 C)) $x16598 $x16821) (or $x76 $x16291 $x16702 $x16821) (or (= (+ A_2 ?x289 L_3 ?x437 C B) 0.0) (not $x16291)) (or $x76 $x16771 (<= 0.0 (+ ?x440 A_3 C))) $x2015 (<= (+ ?x306 A_3 ?x1215 ?x1324 ?x263) 0.0) (or $x76 (<= (+ L_3 ?x437 ?x1071 S_1 B) 0.0) $x16291) (or $x76 $x96 $x2002 (= (+ ?x306 A_3 ?x443 ?x1071 L_5) 0.0)) (or $x76 (<= (+ S_5 L_3 ?x437 ?x1138 B) 0.0)) (or $x76 $x535 $x16291) $x33993 (or $x96 $x1978 $x16965) (<= (+ A_5 (* (- 3.0) C) (* (- 1.0) S_3) ?x340 ?x263) 0.0) (or $x96 (<= (+ S_4 ?x443 C L_5 B) 0.0)) (<= (+ (* (- 1.0) S_4) A_5 ?x1138 ?x340 ?x263) 0.0) (<= (+ A_5 (* (- 5.0) C) (* (- 1.0) S_1) ?x340 ?x263) 0.0) $x34699 (or $x66 $x16560) (or $x96 (<= (+ ?x443 ?x1071 S_3 L_5 B) 0.0) $x16965) (or $x96 $x16965 (<= (+ ?x443 ?x1153 S_2 L_5 B) 0.0)) (or $x96 (= ?x1864 0.0) $x16561 $x16965) (<= (+ A_2 ?x289 ?x1138 (* (- 1.0) S_1) ?x263) 0.0) $x34126 $x34150 (or $x66 (<= (+ (* (- 1.0) A_2) L_2 S_4 ?x1138 B) 0.0)) (or $x66 $x16448) (or (<= 0.0 (+ A_4 ?x443 C B)) $x16962) (or (<= (+ A_1 C (* (- 1.0) S_3) ?x272 ?x263) 0.0) $x2424) (or $x56 (<= (+ ?x432 (* (- 1.0) C) S_2 L_1 B) 0.0)) (or $x56 (<= (+ S_4 ?x432 (* (- 3.0) C) L_1 B) 0.0)) (or $x56 (<= 0.0 (+ ?x443 A_1 ?x272 (* 4.0 C) L_5))) $x34245 $x35308 (or $x96 $x535 $x16448 $x17028) (or $x96 $x535 $x16554 $x16965) $x34614 (or $x96 $x2371 (<= (+ ?x289 A_3 ?x443 ?x1071 L_5) 0.0) $x16965) $x35444 $x34433 (or $x2470 (not $x17028)) (or $x56 (<= (+ S_5 ?x432 ?x1215 L_1 B) 0.0)) $x33838 (or $x2424 (<= (+ C (* (- 1.0) S_3) S_1) 0.0)) $x20858 (or (= (+ L_3 ?x437 A_1 ?x272 ?x1071 B) 0.0) $x16599) (<= (+ ?x1358 (* (- 3.0) C) S_3 L_0) 0.0) (<= (+ ?x1138 S_2 (* (- 1.0) S_1)) 0.0) (<= (+ (* (- 3.0) C) S_3 (* (- 1.0) S_1)) 0.0) $x5429 (<= (+ ?x1138 S_3 (* (- 1.0) S_2)) 0.0) (or $x2416 (<= (+ (* (- 1.0) S_4) ?x1071 S_1) 0.0)) $x12181 (<= (+ S_5 (* (- 1.0) A_2) L_2 (* (- 3.0) C)) 0.0) (<= (+ S_5 ?x5305 ?x1324) 0.0) $x13214 (<= (+ (* (- 3.0) C) S_2 ?x1324) 0.0) (<= (+ A_5 ?x1215 (* (- 1.0) S_2) ?x340 ?x263) 0.0) (<= (+ ?x1358 ?x1138 S_2 L_0) 0.0) (<= (+ ?x1215 S_3 ?x1324) 0.0) (<= (+ A_5 ?x5305 ?x1324 ?x340 ?x263) 0.0) (<= (+ S_5 ?x1358 (* (- 5.0) C) L_0) 0.0) (<= (+ S_4 ?x432 L_1 (* (- 3.0) C)) 0.0) (<= (+ (* (- 1.0) A_2) L_2 S_4 ?x1138) 0.0) (<= (+ S_4 ?x1215 (* (- 1.0) S_1)) 0.0) (<= (+ S_4 ?x1358 ?x1215 L_0) 0.0) (<= (+ S_4 (* (- 3.0) C) (* (- 1.0) S_2)) 0.0) (<= (+ S_5 ?x432 L_1 ?x1215) 0.0) (<= (+ S_4 (* (- 5.0) C) ?x1324) 0.0) (<= (+ S_4 ?x1138 (* (- 1.0) S_3)) 0.0) (<= (+ S_5 (* (- 1.0) S_4) ?x1138) 0.0) (<= (+ S_5 ?x1215 (* (- 1.0) S_2)) 0.0) (<= (+ S_5 (* (- 5.0) C) (* (- 1.0) S_1)) 0.0) (<= (+ S_5 (* (- 3.0) C) (* (- 1.0) S_3)) 0.0) $x929 $x747 $x39 (<= (+ S_5 ?x443 L_5) 0.0) (<= (+ (* (- 1.0) A_2) L_2 S_2) 0.0) (<= (+ (* (- 1.0) A_2) L_2 (* (- 1.0) C) S_3) 0.0) (<= (+ ?x1358 S_0 L_0) 0.0) (<= (+ ?x432 L_1 S_1) 0.0) (<= (+ (* (- 1.0) S_4) C S_2) 0.0) (<= (+ S_5 ?x440 L_4 (* (- 1.0) C)) 0.0)))))))))))))))))))))))))))))))))))))))))))))))))))))))))))))))))))))))))))))))))))))))))))))
(check-sat)
